ISTS is enabled.
Day	0	Optimize a model with 3371 rows, 34222 columns and 420151 nonzeros
Variable types: 280 continuous, 33942 integer (32514 binary)
Coefficient statistics:
  Matrix range     [1e+00, 2e+02]
  Objective range  [1e+00, 2e+03]
  Bounds range     [1e+00, 1e+02]
  RHS range        [1e+00, 1e+03]
Found heuristic solution: objective 158869
Presolve removed 407 rows and 6382 columns
Presolve time: 1.66s
Presolved: 2964 rows, 27840 columns, 240049 nonzeros
Variable types: 0 continuous, 27840 integer (26395 binary)

Root relaxation: objective 1.137295e+05, 2401 iterations, 0.13 seconds

    Nodes    |    Current Node    |     Objective Bounds      |     Work
 Expl Unexpl |  Obj  Depth IntInf | Incumbent    BestBd   Gap | It/Node Time

     0     0 113729.505    0  116 158868.840 113729.505  28.4%     -    1s
H    0     0                    114219.39640 113729.505  0.43%     -    2s
H    0     0                    113938.72879 113729.505  0.18%     -    2s
     0     0 113924.234    0  126 113938.729 113924.234  0.01%     -    2s
     0     0 113924.234    0  114 113938.729 113924.234  0.01%     -    3s
     0     0 113925.936    0   49 113938.729 113925.936  0.01%     -    4s
     0     1 113927.603    0   49 113938.729 113927.603  0.01%     -    4s

Cutting planes:
  Gomory: 9
  Cover: 3
  Clique: 6
  MIR: 4
  Zero half: 9

Explored 1 nodes (5722 simplex iterations) in 4.62 seconds
Thread count was 1 (of 16 available processors)

Solution count 3: 113939 114219 158869 
Pool objective bound 113928

Optimal solution found (tolerance 1.00e-04)
Best objective 1.139387287852e+05, best bound 1.139276030466e+05, gap 0.0098%
	MIPObjVal:	113938.72878515253	runtime:	4.623944044113159	patientsNumber:	123	room Occupancy:	0.8222222222222222	OR Occupancy:	0.6382978723404256
roomCost:	2130.0	genderPolicy:	0.0	transferCost:	0.0	delayCost:	395.0	overCrowdRisk:	16.0	overtime:	0.0	idleRoom:	4740.0	idleOR:	67050.0	eRoomIdle:	1567.970771968287	eORIdle:	38039.758013184255	roomU:	0.0	orU:	0.0
Day	1	Optimize a model with 3257 rows, 33046 columns and 368319 nonzeros
Variable types: 270 continuous, 32776 integer (31399 binary)
Coefficient statistics:
  Matrix range     [1e+00, 2e+02]
  Objective range  [1e+00, 2e+03]
  Bounds range     [1e+00, 1e+02]
  RHS range        [1e+00, 1e+03]
Found heuristic solution: objective 139292
Presolve removed 406 rows and 5386 columns
Presolve time: 1.09s
Presolved: 2851 rows, 27660 columns, 221824 nonzeros
Variable types: 0 continuous, 27660 integer (26276 binary)

Root relaxation: objective 1.001136e+05, 2426 iterations, 0.19 seconds

    Nodes    |    Current Node    |     Objective Bounds      |     Work
 Expl Unexpl |  Obj  Depth IntInf | Incumbent    BestBd   Gap | It/Node Time

     0     0 100113.639    0  139 139292.487 100113.639  28.1%     -    1s
H    0     0                    100604.62359 100113.639  0.49%     -    1s
H    0     0                    100361.57058 100113.639  0.25%     -    1s
     0     0 100307.246    0   77 100361.571 100307.246  0.05%     -    2s
     0     0 100307.246    0   53 100361.571 100307.246  0.05%     -    3s
H    0     0                    100323.80934 100307.246  0.02%     -    3s
     0     0 100307.246    0   83 100323.809 100307.246  0.02%     -    3s
H    0     0                    100311.67947 100307.246  0.00%     -    4s

Cutting planes:
  Gomory: 5
  Cover: 7
  Clique: 5
  MIR: 4
  Zero half: 4

Explored 0 nodes (5812 simplex iterations) in 4.23 seconds
Thread count was 1 (of 16 available processors)

Solution count 5: 100312 100324 100362 ... 139292
Pool objective bound 100307

Optimal solution found (tolerance 1.00e-04)
Best objective 1.003116794693e+05, best bound 1.003072460929e+05, gap 0.0044%
	MIPObjVal:	100311.67946934522	runtime:	4.233312129974365	patientsNumber:	125	room Occupancy:	0.5777777777777777	OR Occupancy:	0.0
roomCost:	2160.0	genderPolicy:	0.0	transferCost:	0.0	delayCost:	390.0	overCrowdRisk:	23.0	overtime:	15.0	idleRoom:	4000.0	idleOR:	60400.0	eRoomIdle:	1439.6870586860734	eORIdle:	31883.992410659142	roomU:	0.0	orU:	0.0
Day	2	Optimize a model with 3155 rows, 37632 columns and 420428 nonzeros
Variable types: 260 continuous, 37372 integer (36046 binary)
Coefficient statistics:
  Matrix range     [1e+00, 2e+02]
  Objective range  [1e+00, 2e+03]
  Bounds range     [1e+00, 1e+02]
  RHS range        [1e+00, 1e+03]
Found heuristic solution: objective 145069
Presolve removed 388 rows and 6029 columns
Presolve time: 1.22s
Presolved: 2767 rows, 31603 columns, 253586 nonzeros
Variable types: 0 continuous, 31603 integer (30259 binary)

Root relaxation: objective 9.608070e+04, 2913 iterations, 0.19 seconds

    Nodes    |    Current Node    |     Objective Bounds      |     Work
 Expl Unexpl |  Obj  Depth IntInf | Incumbent    BestBd   Gap | It/Node Time

     0     0 96080.6958    0  142 145068.655 96080.6958  33.8%     -    1s
H    0     0                    97246.016543 96080.6958  1.20%     -    1s
H    0     0                    96665.150401 96080.6958  0.60%     -    1s
H    0     0                    96399.710702 96080.6958  0.33%     -    2s
     0     0 96271.5475    0  154 96399.7107 96271.5475  0.13%     -    2s
     0     0 96279.9903    0  212 96399.7107 96279.9903  0.12%     -    2s
     0     0 96300.4084    0  261 96399.7107 96300.4084  0.10%     -    2s
     0     0 96300.4084    0   79 96399.7107 96300.4084  0.10%     -    3s
     0     0 96300.4084    0  191 96399.7107 96300.4084  0.10%     -    3s
     0     0 96306.6342    0  187 96399.7107 96306.6342  0.10%     -    3s
     0     0 96310.4579    0  188 96399.7107 96310.4579  0.09%     -    4s
H    0     0                    96315.752609 96310.4579  0.01%     -    4s

Cutting planes:
  Gomory: 7
  Cover: 9
  Implied bound: 1
  Clique: 2
  MIR: 5
  Zero half: 12

Explored 0 nodes (6951 simplex iterations) in 4.76 seconds
Thread count was 1 (of 16 available processors)

Solution count 5: 96315.8 96399.7 96665.2 ... 145069
Pool objective bound 96310.5

Optimal solution found (tolerance 1.00e-04)
Best objective 9.631575260857e+04, best bound 9.631045791438e+04, gap 0.0055%
	MIPObjVal:	96315.75260856548	runtime:	4.767150163650513	patientsNumber:	139	room Occupancy:	0.5777777777777777	OR Occupancy:	0.0
roomCost:	2480.0	genderPolicy:	50.0	transferCost:	0.0	delayCost:	490.0	overCrowdRisk:	30.0	overtime:	60.0	idleRoom:	2840.0	idleOR:	54050.0	eRoomIdle:	1320.0895047701126	eORIdle:	34995.66310379536	roomU:	0.0	orU:	0.0
Day	3	Optimize a model with 3048 rows, 40496 columns and 452998 nonzeros
Variable types: 250 continuous, 40246 integer (38971 binary)
Coefficient statistics:
  Matrix range     [1e+00, 2e+02]
  Objective range  [1e+00, 2e+03]
  Bounds range     [1e+00, 1e+02]
  RHS range        [1e+00, 1e+03]
Found heuristic solution: objective 147773
Presolve removed 383 rows and 6586 columns
Presolve time: 1.47s
Presolved: 2665 rows, 33910 columns, 272844 nonzeros
Variable types: 0 continuous, 33910 integer (32616 binary)

Root relaxation: objective 9.397731e+04, 3489 iterations, 0.27 seconds

    Nodes    |    Current Node    |     Objective Bounds      |     Work
 Expl Unexpl |  Obj  Depth IntInf | Incumbent    BestBd   Gap | It/Node Time

     0     0 93977.3129    0  157 147773.491 93977.3129  36.4%     -    2s
H    0     0                    106790.62352 93977.3129  12.0%     -    2s
H    0     0                    95241.932775 93977.3129  1.33%     -    2s
H    0     0                    94240.357020 93977.3129  0.28%     -    3s
     0     0 94213.5679    0  251 94240.3570 94213.5679  0.03%     -    3s
     0     0 94219.4032    0  282 94240.3570 94219.4032  0.02%     -    3s
     0     0 94225.9934    0  262 94240.3570 94225.9934  0.02%     -    4s
     0     0 94225.9934    0   86 94240.3570 94225.9934  0.02%     -    4s
     0     0 94225.9934    0  208 94240.3570 94225.9934  0.02%     -    4s
     0     0 94226.4397    0  235 94240.3570 94226.4397  0.01%     -    4s
     0     0 94233.6527    0  253 94240.3570 94233.6527  0.01%     -    4s

Cutting planes:
  Gomory: 11
  Cover: 5
  Clique: 6
  Zero half: 22

Explored 0 nodes (6268 simplex iterations) in 4.71 seconds
Thread count was 1 (of 16 available processors)

Solution count 4: 94240.4 95241.9 106791 147773 
Pool objective bound 94233.7

Optimal solution found (tolerance 1.00e-04)
Best objective 9.424035702038e+04, best bound 9.423365269309e+04, gap 0.0071%
	MIPObjVal:	94240.35702038498	runtime:	4.7112109661102295	patientsNumber:	148	room Occupancy:	0.8	OR Occupancy:	0.513413506012951
roomCost:	2990.0	genderPolicy:	0.0	transferCost:	100.0	delayCost:	750.0	overCrowdRisk:	27.0	overtime:	180.0	idleRoom:	1960.0	idleOR:	50550.0	eRoomIdle:	1187.9455902538991	eORIdle:	36495.41143013108	roomU:	0.0	orU:	0.0
Day	4	Optimize a model with 2940 rows, 40991 columns and 461397 nonzeros
Variable types: 240 continuous, 40751 integer (39527 binary)
Coefficient statistics:
  Matrix range     [1e+00, 2e+02]
  Objective range  [1e+00, 2e+03]
  Bounds range     [1e+00, 1e+02]
  RHS range        [1e+00, 1e+03]
Found heuristic solution: objective 136505
Presolve removed 373 rows and 6511 columns
Presolve time: 1.33s
Presolved: 2567 rows, 34480 columns, 280655 nonzeros
Variable types: 0 continuous, 34480 integer (33246 binary)

Root relaxation: objective 7.918224e+04, 4108 iterations, 0.35 seconds

    Nodes    |    Current Node    |     Objective Bounds      |     Work
 Expl Unexpl |  Obj  Depth IntInf | Incumbent    BestBd   Gap | It/Node Time

     0     0 79182.2384    0  208 136504.592 79182.2384  42.0%     -    1s
H    0     0                    79841.305090 79182.2384  0.83%     -    2s
H    0     0                    79325.597317 79182.2384  0.18%     -    4s
     0     0 79300.2315    0  223 79325.5973 79300.2315  0.03%     -    4s
     0     0 79300.2315    0  202 79325.5973 79300.2315  0.03%     -    6s
     0     0 79300.2315    0  239 79325.5973 79300.2315  0.03%     -    7s
     0     1 79301.4679    0  239 79325.5973 79301.4679  0.03%     -    8s
     9     8 79311.2919    0  182 79325.5973 79311.2919  0.02%   9.8   10s

Cutting planes:
  Gomory: 14
  Clique: 5
  Flow cover: 1
  Zero half: 21

Explored 83 nodes (15460 simplex iterations) in 13.47 seconds
Thread count was 1 (of 16 available processors)

Solution count 3: 79325.6 79841.3 136505 
Pool objective bound 79317.9

Optimal solution found (tolerance 1.00e-04)
Best objective 7.932559731671e+04, best bound 7.931792817344e+04, gap 0.0097%
	MIPObjVal:	79325.59731671415	runtime:	13.475563049316406	patientsNumber:	156	room Occupancy:	0.8666666666666667	OR Occupancy:	0.47178538390379277
roomCost:	3870.0	genderPolicy:	0.0	transferCost:	0.0	delayCost:	1100.0	overCrowdRisk:	30.0	overtime:	135.0	idleRoom:	1080.0	idleOR:	39400.0	eRoomIdle:	1071.6868491616663	eORIdle:	32638.91046755247	roomU:	0.0	orU:	0.0
Day	5	Optimize a model with 2837 rows, 41929 columns and 462206 nonzeros
Variable types: 230 continuous, 41699 integer (40526 binary)
Coefficient statistics:
  Matrix range     [1e+00, 2e+02]
  Objective range  [1e+00, 2e+03]
  Bounds range     [1e+00, 1e+02]
  RHS range        [1e+00, 1e+03]
Found heuristic solution: objective 124046
Presolve removed 364 rows and 6519 columns
Presolve time: 1.35s
Presolved: 2473 rows, 35410 columns, 286662 nonzeros
Variable types: 0 continuous, 35410 integer (34230 binary)

Root relaxation: objective 6.355760e+04, 4428 iterations, 0.39 seconds

    Nodes    |    Current Node    |     Objective Bounds      |     Work
 Expl Unexpl |  Obj  Depth IntInf | Incumbent    BestBd   Gap | It/Node Time

     0     0 63557.6015    0  159 124045.759 63557.6015  48.8%     -    1s
H    0     0                    67277.445880 63557.6015  5.53%     -    2s
H    0     0                    63770.552061 63557.6015  0.33%     -    2s
     0     0 63737.9347    0  105 63770.5521 63737.9347  0.05%     -    3s
     0     0 63737.9347    0  107 63770.5521 63737.9347  0.05%     -    4s
     0     0 63739.1975    0  108 63770.5521 63739.1975  0.05%     -    5s
     0     1 63739.1975    0  105 63770.5521 63739.1975  0.05%     -    6s

Cutting planes:
  Gomory: 9
  Clique: 6
  Zero half: 25

Explored 15 nodes (14665 simplex iterations) in 9.67 seconds
Thread count was 1 (of 16 available processors)

Solution count 4: 63770.6 63770.6 67277.4 124046 
Pool objective bound 63765.2

Optimal solution found (tolerance 1.00e-04)
Best objective 6.377055206079e+04, best bound 6.376519828619e+04, gap 0.0084%
	MIPObjVal:	63770.55206078806	runtime:	9.672963857650757	patientsNumber:	169	room Occupancy:	1.0	OR Occupancy:	0.9343200740055504
roomCost:	4600.0	genderPolicy:	0.0	transferCost:	100.0	delayCost:	1355.0	overCrowdRisk:	30.0	overtime:	315.0	idleRoom:	360.0	idleOR:	26850.0	eRoomIdle:	943.894046497691	eORIdle:	29216.658014290373	roomU:	0.0	orU:	0.0
Day	6	Optimize a model with 2721 rows, 39715 columns and 437656 nonzeros
Variable types: 220 continuous, 39495 integer (38373 binary)
Coefficient statistics:
  Matrix range     [1e+00, 2e+02]
  Objective range  [1e+00, 2e+03]
  Bounds range     [1e+00, 1e+02]
  RHS range        [1e+00, 1e+03]
Found heuristic solution: objective 112191
Presolve removed 353 rows and 5920 columns
Presolve time: 1.25s
Presolved: 2368 rows, 33795 columns, 274099 nonzeros
Variable types: 0 continuous, 33795 integer (32665 binary)

Root relaxation: objective 5.550798e+04, 4583 iterations, 0.39 seconds

    Nodes    |    Current Node    |     Objective Bounds      |     Work
 Expl Unexpl |  Obj  Depth IntInf | Incumbent    BestBd   Gap | It/Node Time

     0     0 55507.9849    0  182 112191.433 55507.9849  50.5%     -    1s
H    0     0                    56851.590312 55507.9849  2.36%     -    2s
H    0     0                    55971.106216 55507.9849  0.83%     -    3s
     0     0 55944.8798    0  200 55971.1062 55944.8798  0.05%     -    3s
     0     0 55949.7677    0  191 55971.1062 55949.7677  0.04%     -    3s
     0     0 55952.9602    0  117 55971.1062 55952.9602  0.03%     -    3s
     0     0 55952.9602    0  169 55971.1062 55952.9602  0.03%     -    4s
     0     0 55957.6807    0  122 55971.1062 55957.6807  0.02%     -    4s
     0     0 55962.1817    0  174 55971.1062 55962.1817  0.02%     -    4s
     0     0 55963.1354    0  140 55971.1062 55963.1354  0.01%     -    4s
     0     1 55963.5287    0  138 55971.1062 55963.5287  0.01%     -    4s
     2     3 55963.5287    0  117 55971.1062 55963.5287  0.01%  93.5    5s

Cutting planes:
  Gomory: 11
  Clique: 9
  Zero half: 8

Explored 6 nodes (9332 simplex iterations) in 5.20 seconds
Thread count was 1 (of 16 available processors)

Solution count 3: 55971.1 56851.6 112191 
Pool objective bound 55966.2

Optimal solution found (tolerance 1.00e-04)
Best objective 5.597110621584e+04, best bound 5.596620911786e+04, gap 0.0087%
	MIPObjVal:	55971.106215842796	runtime:	5.198051929473877	patientsNumber:	169	room Occupancy:	1.0	OR Occupancy:	0.5596669750231268
roomCost:	3980.0	genderPolicy:	0.0	transferCost:	0.0	delayCost:	1595.0	overCrowdRisk:	31.0	overtime:	225.0	idleRoom:	280.0	idleOR:	23800.0	eRoomIdle:	858.3875709211438	eORIdle:	25201.71864492165	roomU:	0.0	orU:	0.0
Day	7	Optimize a model with 2613 rows, 40227 columns and 439067 nonzeros
Variable types: 210 continuous, 40017 integer (38946 binary)
Coefficient statistics:
  Matrix range     [1e+00, 2e+02]
  Objective range  [1e+00, 2e+03]
  Bounds range     [1e+00, 1e+02]
  RHS range        [1e+00, 1e+03]
Found heuristic solution: objective 100161
Presolve removed 330 rows and 6271 columns
Presolve time: 1.24s
Presolved: 2283 rows, 33956 columns, 274509 nonzeros
Variable types: 0 continuous, 33956 integer (32871 binary)

Root relaxation: objective 4.131642e+04, 4321 iterations, 0.43 seconds

    Nodes    |    Current Node    |     Objective Bounds      |     Work
 Expl Unexpl |  Obj  Depth IntInf | Incumbent    BestBd   Gap | It/Node Time

     0     0 41316.4188    0  131 100160.825 41316.4188  58.7%     -    1s
H    0     0                    45477.432960 41316.4188  9.15%     -    2s
H    0     0                    42264.470438 41316.4188  2.24%     -    2s
     0     0 42250.6858    0   38 42264.4704 42250.6858  0.03%     -    2s
     0     0 42263.3880    0   17 42264.4704 42263.3880  0.00%     -    2s

Cutting planes:
  Cover: 3
  Clique: 7
  MIR: 2
  GUB cover: 2
  Zero half: 2

Explored 0 nodes (4698 simplex iterations) in 2.65 seconds
Thread count was 1 (of 16 available processors)

Solution count 3: 42264.5 45477.4 100161 
Pool objective bound 42263.4

Optimal solution found (tolerance 1.00e-04)
Best objective 4.226447043785e+04, best bound 4.226338801384e+04, gap 0.0026%
	MIPObjVal:	42264.47043785003	runtime:	2.6557328701019287	patientsNumber:	177	room Occupancy:	1.0	OR Occupancy:	0.6475485661424607
roomCost:	3530.0	genderPolicy:	0.0	transferCost:	0.0	delayCost:	1790.0	overCrowdRisk:	38.0	overtime:	345.0	idleRoom:	160.0	idleOR:	12600.0	eRoomIdle:	769.4762320895029	eORIdle:	23031.994205760537	roomU:	0.0	orU:	0.0
Day	8	Optimize a model with 2505 rows, 40610 columns and 417257 nonzeros
Variable types: 200 continuous, 40410 integer (39390 binary)
Coefficient statistics:
  Matrix range     [1e+00, 2e+02]
  Objective range  [1e+00, 2e+03]
  Bounds range     [1e+00, 1e+02]
  RHS range        [1e+00, 1e+03]
Found heuristic solution: objective 92479.8
Presolve removed 315 rows and 6172 columns
Presolve time: 1.17s
Presolved: 2190 rows, 34438 columns, 265665 nonzeros
Variable types: 0 continuous, 34438 integer (33406 binary)

Root relaxation: objective 3.247294e+04, 4779 iterations, 0.42 seconds

    Nodes    |    Current Node    |     Objective Bounds      |     Work
 Expl Unexpl |  Obj  Depth IntInf | Incumbent    BestBd   Gap | It/Node Time

     0     0 32472.9386    0  166 92479.7553 32472.9386  64.9%     -    1s
H    0     0                    35954.975085 32472.9386  9.68%     -    2s
H    0     0                    34298.331584 32472.9386  5.32%     -    2s
H    0     0                    33136.472818 32472.9386  2.00%     -    3s
     0     0 33105.8910    0  225 33136.4728 33105.8910  0.09%     -    4s
     0     0 33106.0186    0  178 33136.4728 33106.0186  0.09%     -    4s
     0     0 33108.5171    0  219 33136.4728 33108.5171  0.08%     -    4s
     0     0 33108.5171    0  142 33136.4728 33108.5171  0.08%     -    5s
     0     0 33124.7244    0  128 33136.4728 33124.7244  0.04%     -    5s
     0     0 33124.7244    0  127 33136.4728 33124.7244  0.04%     -    5s
     0     0 33128.0561    0  101 33136.4728 33128.0561  0.03%     -    5s
     0     1 33128.1194    0  101 33136.4728 33128.1194  0.03%     -    5s

Cutting planes:
  Gomory: 12
  Clique: 10
  Zero half: 20

Explored 31 nodes (14147 simplex iterations) in 6.74 seconds
Thread count was 1 (of 16 available processors)

Solution count 5: 33136.5 33136.5 34298.3 ... 92479.8
Pool objective bound 33133.2

Optimal solution found (tolerance 1.00e-04)
Best objective 3.313647281819e+04, best bound 3.313316130352e+04, gap 0.0100%
	MIPObjVal:	33136.472818188864	runtime:	6.7370829582214355	patientsNumber:	185	room Occupancy:	1.0	OR Occupancy:	0.0
roomCost:	3600.0	genderPolicy:	0.0	transferCost:	0.0	delayCost:	2110.0	overCrowdRisk:	40.0	overtime:	645.0	idleRoom:	120.0	idleOR:	6200.0	eRoomIdle:	688.6077879742829	eORIdle:	19732.86503021457	roomU:	0.0	orU:	0.0
Day	9	Optimize a model with 2417 rows, 45372 columns and 449566 nonzeros
Variable types: 190 continuous, 45182 integer (44213 binary)
Coefficient statistics:
  Matrix range     [1e+00, 2e+02]
  Objective range  [1e+00, 2e+03]
  Bounds range     [1e+00, 1e+02]
  RHS range        [1e+00, 1e+03]
Found heuristic solution: objective 89388.7
Presolve removed 292 rows and 7634 columns
Presolve time: 1.24s
Presolved: 2125 rows, 37738 columns, 282627 nonzeros
Variable types: 0 continuous, 37738 integer (36751 binary)

Root relaxation: objective 3.413544e+04, 6095 iterations, 0.65 seconds

    Nodes    |    Current Node    |     Objective Bounds      |     Work
 Expl Unexpl |  Obj  Depth IntInf | Incumbent    BestBd   Gap | It/Node Time

     0     0 34135.4376    0  200 89388.6595 34135.4376  61.8%     -    2s
H    0     0                    38230.790408 34135.4376  10.7%     -    2s
H    0     0                    35001.675947 34135.4376  2.47%     -    5s
     0     0 34793.0541    0  240 35001.6759 34793.0541  0.60%     -    5s
     0     0 34794.5095    0  224 35001.6759 34794.5095  0.59%     -    6s
     0     0 34829.5896    0   86 35001.6759 34829.5896  0.49%     -    6s
     0     0 34838.1618    0  147 35001.6759 34838.1618  0.47%     -    6s
     0     0 34838.4081    0  171 35001.6759 34838.4081  0.47%     -    7s
     0     0 34838.4081    0  174 35001.6759 34838.4081  0.47%     -    8s
     0     0 34838.4081    0  215 35001.6759 34838.4081  0.47%     -    9s
H    0     0                    34852.458708 34838.4081  0.04%     -    9s
H    0     0                    34848.483811 34838.4081  0.03%     -    9s
     0     0 34838.4081    0  159 34848.4838 34838.4081  0.03%     -    9s
     0     0 34838.6193    0   56 34848.4838 34838.6193  0.03%     -   10s
     0     2 34839.4838    0   55 34848.4838 34839.4838  0.03%     -   10s
H    1     2                    34839.483811 34839.4838  0.00%   179   10s

Cutting planes:
  Cover: 2
  Implied bound: 1
  Clique: 7
  MIR: 12
  GUB cover: 2
  Zero half: 13

Explored 1 nodes (14189 simplex iterations) in 10.97 seconds
Thread count was 1 (of 16 available processors)

Solution count 6: 34839.5 34848.5 34852.5 ... 89388.7
Pool objective bound 34839.5

Optimal solution found (tolerance 1.00e-04)
Best objective 3.483948381070e+04, best bound 3.483948381070e+04, gap 0.0000%
	MIPObjVal:	34839.48381069918	runtime:	10.968210935592651	patientsNumber:	213	room Occupancy:	0.9777777777777777	OR Occupancy:	0.0
roomCost:	3810.0	genderPolicy:	0.0	transferCost:	0.0	delayCost:	2990.0	overCrowdRisk:	49.0	overtime:	810.0	idleRoom:	60.0	idleOR:	5400.0	eRoomIdle:	596.3357148918711	eORIdle:	21124.14809580731	roomU:	0.0	orU:	0.0
Day	10	Optimize a model with 2300 rows, 46438 columns and 454830 nonzeros
Variable types: 180 continuous, 46258 integer (45340 binary)
Coefficient statistics:
  Matrix range     [1e+00, 2e+02]
  Objective range  [1e+00, 2e+03]
  Bounds range     [1e+00, 1e+02]
  RHS range        [1e+00, 1e+03]
Found heuristic solution: objective 88884.9
Presolve removed 274 rows and 8079 columns
Presolve time: 1.20s
Presolved: 2026 rows, 38359 columns, 283358 nonzeros
Variable types: 0 continuous, 38359 integer (37422 binary)

Root relaxation: objective 3.443223e+04, 5826 iterations, 0.62 seconds

    Nodes    |    Current Node    |     Objective Bounds      |     Work
 Expl Unexpl |  Obj  Depth IntInf | Incumbent    BestBd   Gap | It/Node Time

     0     0 34432.2257    0  224 88884.9009 34432.2257  61.3%     -    2s
H    0     0                    35258.182557 34432.2257  2.34%     -    4s
     0     0 35246.7479    0  241 35258.1826 35246.7479  0.03%     -    5s
     0     0 35247.8613    0  155 35258.1826 35247.8613  0.03%     -    5s
     0     0 35250.4149    0  100 35258.1826 35250.4149  0.02%     -    5s
     0     0 35250.4149    0  136 35258.1826 35250.4149  0.02%     -    6s
     0     0 35250.6233    0   41 35258.1826 35250.6233  0.02%     -    6s
     0     0 35250.6233    0   33 35258.1826 35250.6233  0.02%     -    6s
     0     0 35253.3733    0   37 35258.1826 35253.3733  0.01%     -    6s
     0     1 35254.0257    0   21 35258.1826 35254.0257  0.01%     -    6s

Cutting planes:
  Gomory: 3
  Clique: 1
  Zero half: 4

Explored 4 nodes (12347 simplex iterations) in 6.50 seconds
Thread count was 1 (of 16 available processors)

Solution count 2: 35258.2 88884.9 
Pool objective bound 35258

Optimal solution found (tolerance 1.00e-04)
Best objective 3.525818255714e+04, best bound 3.525803811478e+04, gap 0.0004%
	MIPObjVal:	35258.18255714484	runtime:	6.506035089492798	patientsNumber:	212	room Occupancy:	0.9777777777777777	OR Occupancy:	0.7493061979648473
roomCost:	3650.0	genderPolicy:	0.0	transferCost:	0.0	delayCost:	3350.0	overCrowdRisk:	51.0	overtime:	960.0	idleRoom:	20.0	idleOR:	5400.0	eRoomIdle:	520.5499491106417	eORIdle:	21306.632608034197	roomU:	0.0	orU:	0.0
Day	11	Optimize a model with 2182 rows, 45057 columns and 423394 nonzeros
Variable types: 170 continuous, 44887 integer (44020 binary)
Coefficient statistics:
  Matrix range     [1e+00, 2e+02]
  Objective range  [1e+00, 2e+03]
  Bounds range     [1e+00, 1e+02]
  RHS range        [1e+00, 1e+03]
Found heuristic solution: objective 77708.4
Presolve removed 269 rows and 7508 columns
Presolve time: 1.18s
Presolved: 1913 rows, 37549 columns, 267088 nonzeros
Variable types: 0 continuous, 37549 integer (36669 binary)

Root relaxation: objective 2.836623e+04, 6216 iterations, 0.70 seconds

    Nodes    |    Current Node    |     Objective Bounds      |     Work
 Expl Unexpl |  Obj  Depth IntInf | Incumbent    BestBd   Gap | It/Node Time

     0     0 28366.2306    0  232 77708.3562 28366.2306  63.5%     -    2s
H    0     0                    31577.348474 28366.2306  10.2%     -    2s
H    0     0                    29168.276509 28366.2306  2.75%     -    4s
     0     0 28972.9989    0  334 29168.2765 28972.9989  0.67%     -    4s
     0     0 28973.5996    0  334 29168.2765 28973.5996  0.67%     -    5s
     0     0 28982.2567    0  332 29168.2765 28982.2567  0.64%     -    5s
     0     0 28982.8422    0  345 29168.2765 28982.8422  0.64%     -    5s
     0     0 28984.6017    0  376 29168.2765 28984.6017  0.63%     -    6s
     0     0 28985.3507    0  345 29168.2765 28985.3507  0.63%     -    6s
     0     0 28987.3991    0  309 29168.2765 28987.3991  0.62%     -    6s
     0     0 28988.1736    0  312 29168.2765 28988.1736  0.62%     -    6s
     0     0 28989.1507    0  319 29168.2765 28989.1507  0.61%     -    6s
     0     0 28989.2736    0  299 29168.2765 28989.2736  0.61%     -    7s
     0     0 28989.2736    0  226 29168.2765 28989.2736  0.61%     -   11s
     0     0 28989.2736    0  246 29168.2765 28989.2736  0.61%     -   14s
H    0     0                    29008.590401 28989.2736  0.07%     -   15s
     0     0 28989.2736    0  284 29008.5904 28989.2736  0.07%     -   15s
     0     0 28989.2736    0  309 29008.5904 28989.2736  0.07%     -   15s
     0     0 28989.2736    0  265 29008.5904 28989.2736  0.07%     -   16s
     0     1 28989.2736    0  265 29008.5904 28989.2736  0.07%     -   20s
    12     9 28999.5206    0  226 29008.5904 28999.5206  0.03%   522   25s
H   33    21                    29003.559859 29002.0243  0.01%   190   28s

Cutting planes:
  Gomory: 14
  Cover: 1
  Implied bound: 2
  Clique: 23
  MIR: 1
  Zero half: 34

Explored 33 nodes (27796 simplex iterations) in 28.54 seconds
Thread count was 1 (of 16 available processors)

Solution count 5: 29003.6 29008.6 29168.3 ... 77708.4
Pool objective bound 29002

Optimal solution found (tolerance 1.00e-04)
Best objective 2.900355985869e+04, best bound 2.900202429339e+04, gap 0.0053%
	MIPObjVal:	29003.559858694418	runtime:	28.53725004196167	patientsNumber:	210	room Occupancy:	1.0	OR Occupancy:	0.9620721554116559
roomCost:	3460.0	genderPolicy:	0.0	transferCost:	0.0	delayCost:	3605.0	overCrowdRisk:	50.0	overtime:	870.0	idleRoom:	0.0	idleOR:	2700.0	eRoomIdle:	459.20585803449694	eORIdle:	17859.354000659925	roomU:	0.0	orU:	0.0
Day	12	Optimize a model with 2071 rows, 45205 columns and 410242 nonzeros
Variable types: 160 continuous, 45045 integer (44229 binary)
Coefficient statistics:
  Matrix range     [1e+00, 2e+02]
  Objective range  [1e+00, 2e+03]
  Bounds range     [1e+00, 1e+02]
  RHS range        [1e+00, 1e+03]
Found heuristic solution: objective 63460.9
Presolve removed 255 rows and 7700 columns
Presolve time: 1.17s
Presolved: 1816 rows, 37505 columns, 261819 nonzeros
Variable types: 0 continuous, 37505 integer (36680 binary)

Root relaxation: objective 2.507456e+04, 6715 iterations, 0.88 seconds

    Nodes    |    Current Node    |     Objective Bounds      |     Work
 Expl Unexpl |  Obj  Depth IntInf | Incumbent    BestBd   Gap | It/Node Time

     0     0 25074.5552    0  248 63460.8791 25074.5552  60.5%     -    2s
H    0     0                    28012.924842 25074.5552  10.5%     -    2s
H    0     0                    25985.960640 25074.5552  3.51%     -    4s
     0     0 25864.9309    0  207 25985.9606 25864.9309  0.47%     -    5s
     0     0 25866.4504    0  215 25985.9606 25866.4504  0.46%     -    5s
     0     0 25877.7910    0   55 25985.9606 25877.7910  0.42%     -    6s
     0     0 25877.7910    0  212 25985.9606 25877.7910  0.42%     -    7s
H    0     0                    25975.038671 25877.7910  0.37%     -    9s
     0     0 25878.2954    0   86 25975.0387 25878.2954  0.37%     -    9s
H    0     0                    25897.899267 25878.2954  0.08%     -    9s
     0     0 25878.7955    0  104 25897.8993 25878.7955  0.07%     -    9s
     0     0 25881.0573    0   66 25897.8993 25881.0573  0.07%     -    9s
     0     1 25881.0573    0   62 25897.8993 25881.0573  0.07%     -   10s
    29    21 25883.7231    0   55 25897.8993 25883.7231  0.05%   278   16s
H   50    32                    25892.967500 25883.7899  0.04%   161   19s
    56    37 25883.8900    0   55 25892.9675 25883.8900  0.04%   290   20s
H   80    50                    25887.091322 25884.2156  0.01%   290   23s
*  104    45              55    25885.967021 25884.2431  0.01%   236   24s

Cutting planes:
  Gomory: 6
  Clique: 5
  Zero half: 15

Explored 105 nodes (39967 simplex iterations) in 24.91 seconds
Thread count was 1 (of 16 available processors)

Solution count 8: 25886 25887.1 25893 ... 63460.9
Pool objective bound 25884.2

Optimal solution found (tolerance 1.00e-04)
Best objective 2.588596702133e+04, best bound 2.588424314627e+04, gap 0.0067%
	MIPObjVal:	25885.967021331468	runtime:	24.907761812210083	patientsNumber:	215	room Occupancy:	1.0	OR Occupancy:	0.818686401480111
roomCost:	3230.0	genderPolicy:	0.0	transferCost:	0.0	delayCost:	3805.0	overCrowdRisk:	50.0	overtime:	1020.0	idleRoom:	0.0	idleOR:	2300.0	eRoomIdle:	397.22842683612623	eORIdle:	15083.738594495342	roomU:	0.0	orU:	0.0
Day	13	Optimize a model with 1958 rows, 44776 columns and 389554 nonzeros
Variable types: 150 continuous, 44626 integer (43861 binary)
Coefficient statistics:
  Matrix range     [1e+00, 2e+02]
  Objective range  [1e+00, 2e+03]
  Bounds range     [1e+00, 1e+02]
  RHS range        [1e+00, 1e+03]
Found heuristic solution: objective 50615.5
Presolve removed 241 rows and 7574 columns
Presolve time: 1.03s
Presolved: 1717 rows, 37202 columns, 250037 nonzeros
Variable types: 0 continuous, 37202 integer (36430 binary)

Root relaxation: objective 2.038962e+04, 6174 iterations, 0.63 seconds

    Nodes    |    Current Node    |     Objective Bounds      |     Work
 Expl Unexpl |  Obj  Depth IntInf | Incumbent    BestBd   Gap | It/Node Time

     0     0 20389.6201    0  244 50615.5031 20389.6201  59.7%     -    2s
H    0     0                    21503.802715 20389.6201  5.18%     -    4s
     0     0 21026.0225    0  278 21503.8027 21026.0225  2.22%     -    5s
     0     0 21026.7303    0  174 21503.8027 21026.7303  2.22%     -    5s
     0     0 21026.7303    0  185 21503.8027 21026.7303  2.22%     -    5s
     0     0 21027.4608    0  286 21503.8027 21027.4608  2.22%     -    6s
     0     0 21027.4925    0  287 21503.8027 21027.4925  2.22%     -    6s
     0     0 21027.4925    0  157 21503.8027 21027.4925  2.22%     -    6s
H    0     0                    21060.875647 21027.4925  0.16%     -   10s
     0     0 21027.4925    0  174 21060.8756 21027.4925  0.16%     -   10s
     0     0 21027.4925    0  160 21060.8756 21027.4925  0.16%     -   10s
     0     0 21027.4925    0  211 21060.8756 21027.4925  0.16%     -   11s
H    0     0                    21038.065365 21027.4925  0.05%     -   11s
     0     0 21027.4925    0  251 21038.0654 21027.4925  0.05%     -   12s
     0     0 21027.4925    0   75 21038.0654 21027.4925  0.05%     -   12s
     0     0 21027.5706    0  161 21038.0654 21027.5706  0.05%     -   12s
H    0     0                    21037.825911 21027.5706  0.05%     -   13s
     0     1 21027.6502    0  159 21037.8259 21027.6502  0.05%     -   14s
     4     3 21027.6502    0  145 21037.8259 21027.6502  0.05%   107   15s
    35    25 21029.6868    0  159 21037.8259 21029.6868  0.04%   280   20s
H   56    36                    21030.664875 21029.8186  0.00%   425   23s

Cutting planes:
  Gomory: 8
  Clique: 13
  Zero half: 8

Explored 56 nodes (32618 simplex iterations) in 23.43 seconds
Thread count was 1 (of 16 available processors)

Solution count 6: 21030.7 21037.8 21038.1 ... 50615.5
Pool objective bound 21029.8

Optimal solution found (tolerance 1.00e-04)
Best objective 2.103066487525e+04, best bound 2.102981860383e+04, gap 0.0040%
	MIPObjVal:	21030.66487524737	runtime:	23.427829027175903	patientsNumber:	218	room Occupancy:	1.0	OR Occupancy:	0.9666975023126735
roomCost:	3340.0	genderPolicy:	0.0	transferCost:	0.0	delayCost:	3855.0	overCrowdRisk:	50.0	overtime:	749.9999999999995	idleRoom:	0.0	idleOR:	350.0	eRoomIdle:	342.6814291716374	eORIdle:	12342.98344607573	roomU:	0.0	orU:	0.0
RoomCost:	9140	
GenderPolicy:	0	
TransferCost:	200	
DelayCost:	6160	
OvercrowdRisk:	94	
IdleRoom:	1260	
IdleOR:	32550	
OROORTO:	1500	
OverRC:	0	
ORUORTU:	0	
Violations:	0	Total ObjVal:	50904	Runtime:	0.0	Room occupancy ratio:	0.9357143	OR occupancy ratio:	0.7268519
The dynamic result in	./Results/FS3HighO/or_pas_dept2_short02_sol0.xml	violations:	0	total ObjVal:	50904	runtime:	159.008	average_patient_number:	175
